 Minimize
[ 1.0000000000000000 Z0 * Z118  ]
Subject to
c1: [ -3.2999999999999998 Z0 * Z73 -3.2000000000000002 Z0 * Z74 -3.1000000000000001 Z0 * Z75 -3.2500000000000000 Z0 * Z76 -3.2999999999999998 Z0 * Z77 -3.2000000000000002 Z0 * Z78 -3.1000000000000001 Z0 * Z79 -3.2500000000000000 Z0 * Z80 -3.2999999999999998 Z0 * Z81 -3.2000000000000002 Z0 * Z82 -3.1000000000000001 Z0 * Z83 -3.2500000000000000 Z0 * Z84 -3.2999999999999998 Z0 * Z85 -3.2000000000000002 Z0 * Z86 -3.1000000000000001 Z0 * Z87 -3.2500000000000000 Z0 * Z88 -3.2999999999999998 Z0 * Z89 -3.2000000000000002 Z0 * Z90 -3.1000000000000001 Z0 * Z91 -3.2500000000000000 Z0 * Z92 -3.2999999999999998 Z0 * Z93 -3.2000000000000002 Z0 * Z94 -3.1000000000000001 Z0 * Z95 -3.2500000000000000 Z0 * Z96  + 1.0000000000000000 Z0 * Z113  ] = 0.000000
c2: [ -33.0000000000000000 Z0 * Z105 -33.0000000000000000 Z0 * Z106 -33.0000000000000000 Z0 * Z107 -33.0000000000000000 Z0 * Z108 -33.0000000000000000 Z0 * Z109 -33.0000000000000000 Z0 * Z110  + 1.0000000000000000 Z0 * Z112  ] = 0.000000
c3: [ 1.0000000000000000 Z0 * Z25 -1.0000000000000000 Z0 * Z119  ] = 0.000000
c4: [ 1.0000000000000000 Z0 * Z26 -1.0000000000000000 Z0 * Z120  ] = 0.000000
c5: [ 1.0000000000000000 Z0 * Z27 -1.0000000000000000 Z0 * Z121  ] = 0.000000
c6: [ 1.0000000000000000 Z0 * Z28 -1.0000000000000000 Z0 * Z122  ] = 0.000000
c7: [ 1.0000000000000000 Z0 * Z29 -1.0000000000000000 Z0 * Z123  ] = 0.000000
c8: [ 1.0000000000000000 Z0 * Z30 -1.0000000000000000 Z0 * Z124  ] = 0.000000
c9: [ 1.0000000000000000 Z0 * Z31 -1.0000000000000000 Z0 * Z125  ] = 0.000000
c10: [ 1.0000000000000000 Z0 * Z32 -1.0000000000000000 Z0 * Z126  ] = 0.000000
c11: [ 1.0000000000000000 Z0 * Z33 -1.0000000000000000 Z0 * Z127  ] = 0.000000
c12: [ 1.0000000000000000 Z0 * Z34 -1.0000000000000000 Z0 * Z128  ] = 0.000000
c13: [ 1.0000000000000000 Z0 * Z35 -1.0000000000000000 Z0 * Z129  ] = 0.000000
c14: [ 1.0000000000000000 Z0 * Z36 -1.0000000000000000 Z0 * Z130  ] = 0.000000
c15: [ 1.0000000000000000 Z0 * Z37 -1.0000000000000000 Z0 * Z131  ] = 0.000000
c16: [ 1.0000000000000000 Z0 * Z38 -1.0000000000000000 Z0 * Z132  ] = 0.000000
c17: [ 1.0000000000000000 Z0 * Z39 -1.0000000000000000 Z0 * Z133  ] = 0.000000
c18: [ 1.0000000000000000 Z0 * Z40 -1.0000000000000000 Z0 * Z134  ] = 0.000000
c19: [ 1.0000000000000000 Z0 * Z41 -1.0000000000000000 Z0 * Z135  ] = 0.000000
c20: [ 1.0000000000000000 Z0 * Z42 -1.0000000000000000 Z0 * Z136  ] = 0.000000
c21: [ 1.0000000000000000 Z0 * Z43 -1.0000000000000000 Z0 * Z137  ] = 0.000000
c22: [ 1.0000000000000000 Z0 * Z44 -1.0000000000000000 Z0 * Z138  ] = 0.000000
c23: [ 1.0000000000000000 Z0 * Z45 -1.0000000000000000 Z0 * Z139  ] = 0.000000
c24: [ 1.0000000000000000 Z0 * Z46 -1.0000000000000000 Z0 * Z140  ] = 0.000000
c25: [ 1.0000000000000000 Z0 * Z47 -1.0000000000000000 Z0 * Z141  ] = 0.000000
c26: [ 1.0000000000000000 Z0 * Z48 -1.0000000000000000 Z0 * Z142  ] = 0.000000
c27: [ 1.0000000000000000 Z0 * Z1  + 1.0000000000000000 Z0 * Z2  + 1.0000000000000000 Z0 * Z3  + 1.0000000000000000 Z0 * Z4 -1.0000000000000000 Z0 * Z99  + 1.0000000000000000 Z0 * Z105  ] = 1170.000000
c28: [ 1.0000000000000000 Z0 * Z5  + 1.0000000000000000 Z0 * Z6  + 1.0000000000000000 Z0 * Z7  + 1.0000000000000000 Z0 * Z8 -1.0000000000000000 Z0 * Z100  + 1.0000000000000000 Z0 * Z106  ] = 950.000000
c29: [ 1.0000000000000000 Z0 * Z9  + 1.0000000000000000 Z0 * Z10  + 1.0000000000000000 Z0 * Z11  + 1.0000000000000000 Z0 * Z12 -1.0000000000000000 Z0 * Z101  + 1.0000000000000000 Z0 * Z107  ] = 950.000000
c30: [ 1.0000000000000000 Z0 * Z13  + 1.0000000000000000 Z0 * Z14  + 1.0000000000000000 Z0 * Z15  + 1.0000000000000000 Z0 * Z16 -1.0000000000000000 Z0 * Z102  + 1.0000000000000000 Z0 * Z108  ] = 700.000000
c31: [ 1.0000000000000000 Z0 * Z17  + 1.0000000000000000 Z0 * Z18  + 1.0000000000000000 Z0 * Z19  + 1.0000000000000000 Z0 * Z20 -1.0000000000000000 Z0 * Z103  + 1.0000000000000000 Z0 * Z109  ] = 600.000000
c32: [ 1.0000000000000000 Z0 * Z21  + 1.0000000000000000 Z0 * Z22  + 1.0000000000000000 Z0 * Z23  + 1.0000000000000000 Z0 * Z24 -1.0000000000000000 Z0 * Z104  + 1.0000000000000000 Z0 * Z110  ] = 250.000000
c33: [ -601.5599999999999454 Z0 * Z25  + 1.0000000000000000 Z0 * Z73 -1.0622000000000000 Z1 * Z25 -0.0131000000000000 Z25 * Z143  ] = 0.000000
c34: [ 92.8094999999999999 Z0 * Z26  + 1.0000000000000000 Z0 * Z74 -10.0428599999999992 Z2 * Z26  + 0.0104800000000000 Z26 * Z144  ] = 0.000000
c35: [ -657.3200000000000500 Z0 * Z27  + 1.0000000000000000 Z0 * Z75 -0.0183170000000000 Z27 * Z145  ] = 0.000000
c36: [ -222.1999999999999886 Z0 * Z28  + 1.0000000000000000 Z0 * Z76 -6.2748999999999997 Z4 * Z28 -0.0001000000000000 Z28 * Z146  ] = 0.000000
c37: [ -601.5599999999999454 Z0 * Z29  + 1.0000000000000000 Z0 * Z77 -1.0622000000000000 Z5 * Z29 -0.0131000000000000 Z29 * Z147  ] = 0.000000
c38: [ 92.8094999999999999 Z0 * Z30  + 1.0000000000000000 Z0 * Z78 -10.0428599999999992 Z6 * Z30  + 0.0104800000000000 Z30 * Z148  ] = 0.000000
c39: [ -657.3200000000000500 Z0 * Z31  + 1.0000000000000000 Z0 * Z79 -0.0183170000000000 Z31 * Z149  ] = 0.000000
c40: [ -222.1999999999999886 Z0 * Z32  + 1.0000000000000000 Z0 * Z80 -6.2748999999999997 Z8 * Z32 -0.0001000000000000 Z32 * Z150  ] = 0.000000
c41: [ -601.5599999999999454 Z0 * Z33  + 1.0000000000000000 Z0 * Z81 -1.0622000000000000 Z9 * Z33 -0.0131000000000000 Z33 * Z151  ] = 0.000000
c42: [ 92.8094999999999999 Z0 * Z34  + 1.0000000000000000 Z0 * Z82 -10.0428599999999992 Z10 * Z34  + 0.0104800000000000 Z34 * Z152  ] = 0.000000
c43: [ -657.3200000000000500 Z0 * Z35  + 1.0000000000000000 Z0 * Z83 -0.0183170000000000 Z35 * Z153  ] = 0.000000
c44: [ -222.1999999999999886 Z0 * Z36  + 1.0000000000000000 Z0 * Z84 -6.2748999999999997 Z12 * Z36 -0.0001000000000000 Z36 * Z154  ] = 0.000000
c45: [ -601.5599999999999454 Z0 * Z37  + 1.0000000000000000 Z0 * Z85 -1.0622000000000000 Z13 * Z37 -0.0131000000000000 Z37 * Z155  ] = 0.000000
c46: [ 92.8094999999999999 Z0 * Z38  + 1.0000000000000000 Z0 * Z86 -10.0428599999999992 Z14 * Z38  + 0.0104800000000000 Z38 * Z156  ] = 0.000000
c47: [ -657.3200000000000500 Z0 * Z39  + 1.0000000000000000 Z0 * Z87 -0.0183170000000000 Z39 * Z157  ] = 0.000000
c48: [ -222.1999999999999886 Z0 * Z40  + 1.0000000000000000 Z0 * Z88 -6.2748999999999997 Z16 * Z40 -0.0001000000000000 Z40 * Z158  ] = 0.000000
c49: [ -601.5599999999999454 Z0 * Z41  + 1.0000000000000000 Z0 * Z89 -1.0622000000000000 Z17 * Z41 -0.0131000000000000 Z41 * Z159  ] = 0.000000
c50: [ 92.8094999999999999 Z0 * Z42  + 1.0000000000000000 Z0 * Z90 -10.0428599999999992 Z18 * Z42  + 0.0104800000000000 Z42 * Z160  ] = 0.000000
c51: [ -657.3200000000000500 Z0 * Z43  + 1.0000000000000000 Z0 * Z91 -0.0183170000000000 Z43 * Z161  ] = 0.000000
c52: [ -222.1999999999999886 Z0 * Z44  + 1.0000000000000000 Z0 * Z92 -6.2748999999999997 Z20 * Z44 -0.0001000000000000 Z44 * Z162  ] = 0.000000
c53: [ -601.5599999999999454 Z0 * Z45  + 1.0000000000000000 Z0 * Z93 -1.0622000000000000 Z21 * Z45 -0.0131000000000000 Z45 * Z163  ] = 0.000000
c54: [ 92.8094999999999999 Z0 * Z46  + 1.0000000000000000 Z0 * Z94 -10.0428599999999992 Z22 * Z46  + 0.0104800000000000 Z46 * Z164  ] = 0.000000
c55: [ -657.3200000000000500 Z0 * Z47  + 1.0000000000000000 Z0 * Z95 -0.0183170000000000 Z47 * Z165  ] = 0.000000
c56: [ -222.1999999999999886 Z0 * Z48  + 1.0000000000000000 Z0 * Z96 -6.2748999999999997 Z24 * Z48 -0.0001000000000000 Z48 * Z166  ] = 0.000000
c57: [ -1.0000000000000000 Z0 * Z73 -1.0000000000000000 Z0 * Z77 -1.0000000000000000 Z0 * Z81 -1.0000000000000000 Z0 * Z85 -1.0000000000000000 Z0 * Z89 -1.0000000000000000 Z0 * Z93  + 1.0000000000000000 Z0 * Z114  ] = 0.000000
c58: [ -1.0000000000000000 Z0 * Z74 -1.0000000000000000 Z0 * Z78 -1.0000000000000000 Z0 * Z82 -1.0000000000000000 Z0 * Z86 -1.0000000000000000 Z0 * Z90 -1.0000000000000000 Z0 * Z94  + 1.0000000000000000 Z0 * Z115  ] = 0.000000
c59: [ -1.0000000000000000 Z0 * Z75 -1.0000000000000000 Z0 * Z79 -1.0000000000000000 Z0 * Z83 -1.0000000000000000 Z0 * Z87 -1.0000000000000000 Z0 * Z91 -1.0000000000000000 Z0 * Z95  + 1.0000000000000000 Z0 * Z116  ] = 0.000000
c60: [ -1.0000000000000000 Z0 * Z76 -1.0000000000000000 Z0 * Z80 -1.0000000000000000 Z0 * Z84 -1.0000000000000000 Z0 * Z88 -1.0000000000000000 Z0 * Z92 -1.0000000000000000 Z0 * Z96  + 1.0000000000000000 Z0 * Z117  ] = 0.000000
c61: [ 1.0000000000000000 Z0 * Z98  ] = 231000.000000
c62: [ -30.0000000000000000 Z0 * Z99 -30.0000000000000000 Z0 * Z100 -30.0000000000000000 Z0 * Z101 -30.0000000000000000 Z0 * Z102 -30.0000000000000000 Z0 * Z103 -30.0000000000000000 Z0 * Z104  + 1.0000000000000000 Z0 * Z111  ] = 0.000000
c63: [ 1.0000000000000000 Z0 * Z97 -1.0000000000000000 Z0 * Z98 -1.0000000000000000 Z0 * Z111  ] = 0.000000
c64: [ -1.0000000000000000 Z0 * Z1  + 1.0000000000000000 Z0 * Z5  ] <= 500.000000
c65: [ -1.0000000000000000 Z0 * Z2  + 1.0000000000000000 Z0 * Z6  ] <= 500.000000
c66: [ -1.0000000000000000 Z0 * Z3  + 1.0000000000000000 Z0 * Z7  ] <= 500.000000
c67: [ -1.0000000000000000 Z0 * Z4  + 1.0000000000000000 Z0 * Z8  ] <= 500.000000
c68: [ -1.0000000000000000 Z0 * Z5  + 1.0000000000000000 Z0 * Z9  ] <= 500.000000
c69: [ -1.0000000000000000 Z0 * Z6  + 1.0000000000000000 Z0 * Z10  ] <= 500.000000
c70: [ -1.0000000000000000 Z0 * Z7  + 1.0000000000000000 Z0 * Z11  ] <= 500.000000
c71: [ -1.0000000000000000 Z0 * Z8  + 1.0000000000000000 Z0 * Z12  ] <= 500.000000
c72: [ -1.0000000000000000 Z0 * Z9  + 1.0000000000000000 Z0 * Z13  ] <= 500.000000
c73: [ -1.0000000000000000 Z0 * Z10  + 1.0000000000000000 Z0 * Z14  ] <= 500.000000
c74: [ -1.0000000000000000 Z0 * Z11  + 1.0000000000000000 Z0 * Z15  ] <= 500.000000
c75: [ -1.0000000000000000 Z0 * Z12  + 1.0000000000000000 Z0 * Z16  ] <= 500.000000
c76: [ -1.0000000000000000 Z0 * Z13  + 1.0000000000000000 Z0 * Z17  ] <= 500.000000
c77: [ -1.0000000000000000 Z0 * Z14  + 1.0000000000000000 Z0 * Z18  ] <= 500.000000
c78: [ -1.0000000000000000 Z0 * Z15  + 1.0000000000000000 Z0 * Z19  ] <= 500.000000
c79: [ -1.0000000000000000 Z0 * Z16  + 1.0000000000000000 Z0 * Z20  ] <= 500.000000
c80: [ -1.0000000000000000 Z0 * Z17  + 1.0000000000000000 Z0 * Z21  ] <= 500.000000
c81: [ -1.0000000000000000 Z0 * Z18  + 1.0000000000000000 Z0 * Z22  ] <= 500.000000
c82: [ -1.0000000000000000 Z0 * Z19  + 1.0000000000000000 Z0 * Z23  ] <= 500.000000
c83: [ -1.0000000000000000 Z0 * Z20  + 1.0000000000000000 Z0 * Z24  ] <= 500.000000
c84: [ 1.0000000000000000 Z0 * Z1 -1.0000000000000000 Z0 * Z5  ] <= 500.000000
c85: [ 1.0000000000000000 Z0 * Z2 -1.0000000000000000 Z0 * Z6  ] <= 500.000000
c86: [ 1.0000000000000000 Z0 * Z3 -1.0000000000000000 Z0 * Z7  ] <= 500.000000
c87: [ 1.0000000000000000 Z0 * Z4 -1.0000000000000000 Z0 * Z8  ] <= 500.000000
c88: [ 1.0000000000000000 Z0 * Z5 -1.0000000000000000 Z0 * Z9  ] <= 500.000000
c89: [ 1.0000000000000000 Z0 * Z6 -1.0000000000000000 Z0 * Z10  ] <= 500.000000
c90: [ 1.0000000000000000 Z0 * Z7 -1.0000000000000000 Z0 * Z11  ] <= 500.000000
c91: [ 1.0000000000000000 Z0 * Z8 -1.0000000000000000 Z0 * Z12  ] <= 500.000000
c92: [ 1.0000000000000000 Z0 * Z9 -1.0000000000000000 Z0 * Z13  ] <= 500.000000
c93: [ 1.0000000000000000 Z0 * Z10 -1.0000000000000000 Z0 * Z14  ] <= 500.000000
c94: [ 1.0000000000000000 Z0 * Z11 -1.0000000000000000 Z0 * Z15  ] <= 500.000000
c95: [ 1.0000000000000000 Z0 * Z12 -1.0000000000000000 Z0 * Z16  ] <= 500.000000
c96: [ 1.0000000000000000 Z0 * Z13 -1.0000000000000000 Z0 * Z17  ] <= 500.000000
c97: [ 1.0000000000000000 Z0 * Z14 -1.0000000000000000 Z0 * Z18  ] <= 500.000000
c98: [ 1.0000000000000000 Z0 * Z15 -1.0000000000000000 Z0 * Z19  ] <= 500.000000
c99: [ 1.0000000000000000 Z0 * Z16 -1.0000000000000000 Z0 * Z20  ] <= 500.000000
c100: [ 1.0000000000000000 Z0 * Z17 -1.0000000000000000 Z0 * Z21  ] <= 500.000000
c101: [ 1.0000000000000000 Z0 * Z18 -1.0000000000000000 Z0 * Z22  ] <= 500.000000
c102: [ 1.0000000000000000 Z0 * Z19 -1.0000000000000000 Z0 * Z23  ] <= 500.000000
c103: [ 1.0000000000000000 Z0 * Z20 -1.0000000000000000 Z0 * Z24  ] <= 500.000000
c104: [ 1.0000000000000000 Z0 * Z1  ] <= 800.000000
c105: [ 1.0000000000000000 Z0 * Z2  ] <= 650.000000
c106: [ 1.0000000000000000 Z0 * Z3  ] <= 660.000000
c107: [ 1.0000000000000000 Z0 * Z4  ] <= 750.000000
c108: [ -1.0000000000000000 Z0 * Z1  ] <= 200.000000
c109: [ -1.0000000000000000 Z0 * Z2  ] <= 350.000000
c110: [ -1.0000000000000000 Z0 * Z3  ] <= 340.000000
c111: [ -1.0000000000000000 Z0 * Z4  ] <= 250.000000
c112: [ 1.0000000000000000 Z0 * Z1  + 1.0000000000000000 Z0 * Z49 -250.0000000000000000 Z0 * Z119  ] = 0.000000
c113: [ 1.0000000000000000 Z0 * Z2  + 1.0000000000000000 Z0 * Z50 -170.0000000000000000 Z0 * Z120  ] = 0.000000
c114: [ 1.0000000000000000 Z0 * Z3  + 1.0000000000000000 Z0 * Z51 -260.0000000000000000 Z0 * Z121  ] = 0.000000
c115: [ 1.0000000000000000 Z0 * Z4  + 1.0000000000000000 Z0 * Z52 -510.0000000000000000 Z0 * Z122  ] = 0.000000
c116: [ 1.0000000000000000 Z0 * Z5  + 1.0000000000000000 Z0 * Z53 -250.0000000000000000 Z0 * Z123  ] = 0.000000
c117: [ 1.0000000000000000 Z0 * Z6  + 1.0000000000000000 Z0 * Z54 -170.0000000000000000 Z0 * Z124  ] = 0.000000
c118: [ 1.0000000000000000 Z0 * Z7  + 1.0000000000000000 Z0 * Z55 -260.0000000000000000 Z0 * Z125  ] = 0.000000
c119: [ 1.0000000000000000 Z0 * Z8  + 1.0000000000000000 Z0 * Z56 -510.0000000000000000 Z0 * Z126  ] = 0.000000
c120: [ 1.0000000000000000 Z0 * Z9  + 1.0000000000000000 Z0 * Z57 -250.0000000000000000 Z0 * Z127  ] = 0.000000
c121: [ 1.0000000000000000 Z0 * Z10  + 1.0000000000000000 Z0 * Z58 -170.0000000000000000 Z0 * Z128  ] = 0.000000
c122: [ 1.0000000000000000 Z0 * Z11  + 1.0000000000000000 Z0 * Z59 -260.0000000000000000 Z0 * Z129  ] = 0.000000
c123: [ 1.0000000000000000 Z0 * Z12  + 1.0000000000000000 Z0 * Z60 -510.0000000000000000 Z0 * Z130  ] = 0.000000
c124: [ 1.0000000000000000 Z0 * Z13  + 1.0000000000000000 Z0 * Z61 -250.0000000000000000 Z0 * Z131  ] = 0.000000
c125: [ 1.0000000000000000 Z0 * Z14  + 1.0000000000000000 Z0 * Z62 -170.0000000000000000 Z0 * Z132  ] = 0.000000
c126: [ 1.0000000000000000 Z0 * Z15  + 1.0000000000000000 Z0 * Z63 -260.0000000000000000 Z0 * Z133  ] = 0.000000
c127: [ 1.0000000000000000 Z0 * Z16  + 1.0000000000000000 Z0 * Z64 -510.0000000000000000 Z0 * Z134  ] = 0.000000
c128: [ 1.0000000000000000 Z0 * Z17  + 1.0000000000000000 Z0 * Z65 -250.0000000000000000 Z0 * Z135  ] = 0.000000
c129: [ 1.0000000000000000 Z0 * Z18  + 1.0000000000000000 Z0 * Z66 -170.0000000000000000 Z0 * Z136  ] = 0.000000
c130: [ 1.0000000000000000 Z0 * Z19  + 1.0000000000000000 Z0 * Z67 -260.0000000000000000 Z0 * Z137  ] = 0.000000
c131: [ 1.0000000000000000 Z0 * Z20  + 1.0000000000000000 Z0 * Z68 -510.0000000000000000 Z0 * Z138  ] = 0.000000
c132: [ 1.0000000000000000 Z0 * Z21  + 1.0000000000000000 Z0 * Z69 -250.0000000000000000 Z0 * Z139  ] = 0.000000
c133: [ 1.0000000000000000 Z0 * Z22  + 1.0000000000000000 Z0 * Z70 -170.0000000000000000 Z0 * Z140  ] = 0.000000
c134: [ 1.0000000000000000 Z0 * Z23  + 1.0000000000000000 Z0 * Z71 -260.0000000000000000 Z0 * Z141  ] = 0.000000
c135: [ 1.0000000000000000 Z0 * Z24  + 1.0000000000000000 Z0 * Z72 -510.0000000000000000 Z0 * Z142  ] = 0.000000
c136: [ 1.0000000000000000 Z0 * Z49  + 1.0000000000000000 Z0 * Z50  + 1.0000000000000000 Z0 * Z51  + 1.0000000000000000 Z0 * Z52  ] >= 25.000000
c137: [ 1.0000000000000000 Z0 * Z53  + 1.0000000000000000 Z0 * Z54  + 1.0000000000000000 Z0 * Z55  + 1.0000000000000000 Z0 * Z56  ] >= 25.000000
c138: [ 1.0000000000000000 Z0 * Z57  + 1.0000000000000000 Z0 * Z58  + 1.0000000000000000 Z0 * Z59  + 1.0000000000000000 Z0 * Z60  ] >= 25.000000
c139: [ 1.0000000000000000 Z0 * Z61  + 1.0000000000000000 Z0 * Z62  + 1.0000000000000000 Z0 * Z63  + 1.0000000000000000 Z0 * Z64  ] >= 25.000000
c140: [ 1.0000000000000000 Z0 * Z65  + 1.0000000000000000 Z0 * Z66  + 1.0000000000000000 Z0 * Z67  + 1.0000000000000000 Z0 * Z68  ] >= 25.000000
c141: [ 1.0000000000000000 Z0 * Z69  + 1.0000000000000000 Z0 * Z70  + 1.0000000000000000 Z0 * Z71  + 1.0000000000000000 Z0 * Z72  ] >= 25.000000
c142: [ 1.0000000000000000 Z0 * Z1 -250.0000000000000000 Z0 * Z119  ] <= 0.000000
c143: [ 1.0000000000000000 Z0 * Z2 -170.0000000000000000 Z0 * Z120  ] <= 0.000000
c144: [ 1.0000000000000000 Z0 * Z3 -260.0000000000000000 Z0 * Z121  ] <= 0.000000
c145: [ 1.0000000000000000 Z0 * Z4 -510.0000000000000000 Z0 * Z122  ] <= 0.000000
c146: [ 1.0000000000000000 Z0 * Z5 -250.0000000000000000 Z0 * Z123  ] <= 0.000000
c147: [ 1.0000000000000000 Z0 * Z6 -170.0000000000000000 Z0 * Z124  ] <= 0.000000
c148: [ 1.0000000000000000 Z0 * Z7 -260.0000000000000000 Z0 * Z125  ] <= 0.000000
c149: [ 1.0000000000000000 Z0 * Z8 -510.0000000000000000 Z0 * Z126  ] <= 0.000000
c150: [ 1.0000000000000000 Z0 * Z9 -250.0000000000000000 Z0 * Z127  ] <= 0.000000
c151: [ 1.0000000000000000 Z0 * Z10 -170.0000000000000000 Z0 * Z128  ] <= 0.000000
c152: [ 1.0000000000000000 Z0 * Z11 -260.0000000000000000 Z0 * Z129  ] <= 0.000000
c153: [ 1.0000000000000000 Z0 * Z12 -510.0000000000000000 Z0 * Z130  ] <= 0.000000
c154: [ 1.0000000000000000 Z0 * Z13 -250.0000000000000000 Z0 * Z131  ] <= 0.000000
c155: [ 1.0000000000000000 Z0 * Z14 -170.0000000000000000 Z0 * Z132  ] <= 0.000000
c156: [ 1.0000000000000000 Z0 * Z15 -260.0000000000000000 Z0 * Z133  ] <= 0.000000
c157: [ 1.0000000000000000 Z0 * Z16 -510.0000000000000000 Z0 * Z134  ] <= 0.000000
c158: [ 1.0000000000000000 Z0 * Z17 -250.0000000000000000 Z0 * Z135  ] <= 0.000000
c159: [ 1.0000000000000000 Z0 * Z18 -170.0000000000000000 Z0 * Z136  ] <= 0.000000
c160: [ 1.0000000000000000 Z0 * Z19 -260.0000000000000000 Z0 * Z137  ] <= 0.000000
c161: [ 1.0000000000000000 Z0 * Z20 -510.0000000000000000 Z0 * Z138  ] <= 0.000000
c162: [ 1.0000000000000000 Z0 * Z21 -250.0000000000000000 Z0 * Z139  ] <= 0.000000
c163: [ 1.0000000000000000 Z0 * Z22 -170.0000000000000000 Z0 * Z140  ] <= 0.000000
c164: [ 1.0000000000000000 Z0 * Z23 -260.0000000000000000 Z0 * Z141  ] <= 0.000000
c165: [ 1.0000000000000000 Z0 * Z24 -510.0000000000000000 Z0 * Z142  ] <= 0.000000
c166: [ 1.0000000000000000 Z0 * Z1 -140.0000000000000000 Z0 * Z119  ] >= 0.000000
c167: [ 1.0000000000000000 Z0 * Z2 -140.0000000000000000 Z0 * Z120  ] >= 0.000000
c168: [ 1.0000000000000000 Z0 * Z3 -140.0000000000000000 Z0 * Z121  ] >= 0.000000
c169: [ 1.0000000000000000 Z0 * Z4 -160.0000000000000000 Z0 * Z122  ] >= 0.000000
c170: [ 1.0000000000000000 Z0 * Z5 -140.0000000000000000 Z0 * Z123  ] >= 0.000000
c171: [ 1.0000000000000000 Z0 * Z6 -140.0000000000000000 Z0 * Z124  ] >= 0.000000
c172: [ 1.0000000000000000 Z0 * Z7 -140.0000000000000000 Z0 * Z125  ] >= 0.000000
c173: [ 1.0000000000000000 Z0 * Z8 -160.0000000000000000 Z0 * Z126  ] >= 0.000000
c174: [ 1.0000000000000000 Z0 * Z9 -140.0000000000000000 Z0 * Z127  ] >= 0.000000
c175: [ 1.0000000000000000 Z0 * Z10 -140.0000000000000000 Z0 * Z128  ] >= 0.000000
c176: [ 1.0000000000000000 Z0 * Z11 -140.0000000000000000 Z0 * Z129  ] >= 0.000000
c177: [ 1.0000000000000000 Z0 * Z12 -160.0000000000000000 Z0 * Z130  ] >= 0.000000
c178: [ 1.0000000000000000 Z0 * Z13 -140.0000000000000000 Z0 * Z131  ] >= 0.000000
c179: [ 1.0000000000000000 Z0 * Z14 -140.0000000000000000 Z0 * Z132  ] >= 0.000000
c180: [ 1.0000000000000000 Z0 * Z15 -140.0000000000000000 Z0 * Z133  ] >= 0.000000
c181: [ 1.0000000000000000 Z0 * Z16 -160.0000000000000000 Z0 * Z134  ] >= 0.000000
c182: [ 1.0000000000000000 Z0 * Z17 -140.0000000000000000 Z0 * Z135  ] >= 0.000000
c183: [ 1.0000000000000000 Z0 * Z18 -140.0000000000000000 Z0 * Z136  ] >= 0.000000
c184: [ 1.0000000000000000 Z0 * Z19 -140.0000000000000000 Z0 * Z137  ] >= 0.000000
c185: [ 1.0000000000000000 Z0 * Z20 -160.0000000000000000 Z0 * Z138  ] >= 0.000000
c186: [ 1.0000000000000000 Z0 * Z21 -140.0000000000000000 Z0 * Z139  ] >= 0.000000
c187: [ 1.0000000000000000 Z0 * Z22 -140.0000000000000000 Z0 * Z140  ] >= 0.000000
c188: [ 1.0000000000000000 Z0 * Z23 -140.0000000000000000 Z0 * Z141  ] >= 0.000000
c189: [ 1.0000000000000000 Z0 * Z24 -160.0000000000000000 Z0 * Z142  ] >= 0.000000
c190: [ -1.0000000000000000 Z0 * Z97  + 1.0000000000000000 Z0 * Z112  + 1.0000000000000000 Z0 * Z113 -1.0000000000000000 Z0 * Z118  ] = 0.000000
ac1: Z0 - 1 = 0
ac2: [ 1.0000000000000000 Z0 * Z143 -1.0000000000000000 Z1 * Z1  ] = 0
ac3: [ 1.0000000000000000 Z0 * Z144 -1.0000000000000000 Z2 * Z2  ] = 0
ac4: [ 1.0000000000000000 Z0 * Z145 -1.0000000000000000 Z3 * Z3  ] = 0
ac5: [ 1.0000000000000000 Z0 * Z146 -1.0000000000000000 Z4 * Z4  ] = 0
ac6: [ 1.0000000000000000 Z0 * Z147 -1.0000000000000000 Z5 * Z5  ] = 0
ac7: [ 1.0000000000000000 Z0 * Z148 -1.0000000000000000 Z6 * Z6  ] = 0
ac8: [ 1.0000000000000000 Z0 * Z149 -1.0000000000000000 Z7 * Z7  ] = 0
ac9: [ 1.0000000000000000 Z0 * Z150 -1.0000000000000000 Z8 * Z8  ] = 0
ac10: [ 1.0000000000000000 Z0 * Z151 -1.0000000000000000 Z9 * Z9  ] = 0
ac11: [ 1.0000000000000000 Z0 * Z152 -1.0000000000000000 Z10 * Z10  ] = 0
ac12: [ 1.0000000000000000 Z0 * Z153 -1.0000000000000000 Z11 * Z11  ] = 0
ac13: [ 1.0000000000000000 Z0 * Z154 -1.0000000000000000 Z12 * Z12  ] = 0
ac14: [ 1.0000000000000000 Z0 * Z155 -1.0000000000000000 Z13 * Z13  ] = 0
ac15: [ 1.0000000000000000 Z0 * Z156 -1.0000000000000000 Z14 * Z14  ] = 0
ac16: [ 1.0000000000000000 Z0 * Z157 -1.0000000000000000 Z15 * Z15  ] = 0
ac17: [ 1.0000000000000000 Z0 * Z158 -1.0000000000000000 Z16 * Z16  ] = 0
ac18: [ 1.0000000000000000 Z0 * Z159 -1.0000000000000000 Z17 * Z17  ] = 0
ac19: [ 1.0000000000000000 Z0 * Z160 -1.0000000000000000 Z18 * Z18  ] = 0
ac20: [ 1.0000000000000000 Z0 * Z161 -1.0000000000000000 Z19 * Z19  ] = 0
ac21: [ 1.0000000000000000 Z0 * Z162 -1.0000000000000000 Z20 * Z20  ] = 0
ac22: [ 1.0000000000000000 Z0 * Z163 -1.0000000000000000 Z21 * Z21  ] = 0
ac23: [ 1.0000000000000000 Z0 * Z164 -1.0000000000000000 Z22 * Z22  ] = 0
ac24: [ 1.0000000000000000 Z0 * Z165 -1.0000000000000000 Z23 * Z23  ] = 0
ac25: [ 1.0000000000000000 Z0 * Z166 -1.0000000000000000 Z24 * Z24  ] = 0
Bounds
1 <= Z0 <= 1
0.0000000000000000 <= Z1 <= 100000000.0000000000000000
0.0000000000000000 <= Z2 <= 100000000.0000000000000000
0.0000000000000000 <= Z3 <= 100000000.0000000000000000
0.0000000000000000 <= Z4 <= 100000000.0000000000000000
0.0000000000000000 <= Z5 <= 100000000.0000000000000000
0.0000000000000000 <= Z6 <= 100000000.0000000000000000
0.0000000000000000 <= Z7 <= 100000000.0000000000000000
0.0000000000000000 <= Z8 <= 100000000.0000000000000000
0.0000000000000000 <= Z9 <= 100000000.0000000000000000
0.0000000000000000 <= Z10 <= 100000000.0000000000000000
0.0000000000000000 <= Z11 <= 100000000.0000000000000000
0.0000000000000000 <= Z12 <= 100000000.0000000000000000
0.0000000000000000 <= Z13 <= 100000000.0000000000000000
0.0000000000000000 <= Z14 <= 100000000.0000000000000000
0.0000000000000000 <= Z15 <= 100000000.0000000000000000
0.0000000000000000 <= Z16 <= 100000000.0000000000000000
0.0000000000000000 <= Z17 <= 100000000.0000000000000000
0.0000000000000000 <= Z18 <= 100000000.0000000000000000
0.0000000000000000 <= Z19 <= 100000000.0000000000000000
0.0000000000000000 <= Z20 <= 100000000.0000000000000000
0.0000000000000000 <= Z21 <= 100000000.0000000000000000
0.0000000000000000 <= Z22 <= 100000000.0000000000000000
0.0000000000000000 <= Z23 <= 100000000.0000000000000000
0.0000000000000000 <= Z24 <= 100000000.0000000000000000
-100000000.0000000000000000 <= Z25 <= 100000000.0000000000000000
-100000000.0000000000000000 <= Z26 <= 100000000.0000000000000000
-100000000.0000000000000000 <= Z27 <= 100000000.0000000000000000
-100000000.0000000000000000 <= Z28 <= 100000000.0000000000000000
-100000000.0000000000000000 <= Z29 <= 100000000.0000000000000000
-100000000.0000000000000000 <= Z30 <= 100000000.0000000000000000
-100000000.0000000000000000 <= Z31 <= 100000000.0000000000000000
-100000000.0000000000000000 <= Z32 <= 100000000.0000000000000000
-100000000.0000000000000000 <= Z33 <= 100000000.0000000000000000
-100000000.0000000000000000 <= Z34 <= 100000000.0000000000000000
-100000000.0000000000000000 <= Z35 <= 100000000.0000000000000000
-100000000.0000000000000000 <= Z36 <= 100000000.0000000000000000
-100000000.0000000000000000 <= Z37 <= 100000000.0000000000000000
-100000000.0000000000000000 <= Z38 <= 100000000.0000000000000000
-100000000.0000000000000000 <= Z39 <= 100000000.0000000000000000
-100000000.0000000000000000 <= Z40 <= 100000000.0000000000000000
-100000000.0000000000000000 <= Z41 <= 100000000.0000000000000000
-100000000.0000000000000000 <= Z42 <= 100000000.0000000000000000
-100000000.0000000000000000 <= Z43 <= 100000000.0000000000000000
-100000000.0000000000000000 <= Z44 <= 100000000.0000000000000000
-100000000.0000000000000000 <= Z45 <= 100000000.0000000000000000
-100000000.0000000000000000 <= Z46 <= 100000000.0000000000000000
-100000000.0000000000000000 <= Z47 <= 100000000.0000000000000000
-100000000.0000000000000000 <= Z48 <= 100000000.0000000000000000
0.0000000000000000 <= Z49 <= 100000000.0000000000000000
0.0000000000000000 <= Z50 <= 100000000.0000000000000000
0.0000000000000000 <= Z51 <= 100000000.0000000000000000
0.0000000000000000 <= Z52 <= 100000000.0000000000000000
0.0000000000000000 <= Z53 <= 100000000.0000000000000000
0.0000000000000000 <= Z54 <= 100000000.0000000000000000
0.0000000000000000 <= Z55 <= 100000000.0000000000000000
0.0000000000000000 <= Z56 <= 100000000.0000000000000000
0.0000000000000000 <= Z57 <= 100000000.0000000000000000
0.0000000000000000 <= Z58 <= 100000000.0000000000000000
0.0000000000000000 <= Z59 <= 100000000.0000000000000000
0.0000000000000000 <= Z60 <= 100000000.0000000000000000
0.0000000000000000 <= Z61 <= 100000000.0000000000000000
0.0000000000000000 <= Z62 <= 100000000.0000000000000000
0.0000000000000000 <= Z63 <= 100000000.0000000000000000
0.0000000000000000 <= Z64 <= 100000000.0000000000000000
0.0000000000000000 <= Z65 <= 100000000.0000000000000000
0.0000000000000000 <= Z66 <= 100000000.0000000000000000
0.0000000000000000 <= Z67 <= 100000000.0000000000000000
0.0000000000000000 <= Z68 <= 100000000.0000000000000000
0.0000000000000000 <= Z69 <= 100000000.0000000000000000
0.0000000000000000 <= Z70 <= 100000000.0000000000000000
0.0000000000000000 <= Z71 <= 100000000.0000000000000000
0.0000000000000000 <= Z72 <= 100000000.0000000000000000
0.0000000000000000 <= Z73 <= 100000000.0000000000000000
0.0000000000000000 <= Z74 <= 100000000.0000000000000000
0.0000000000000000 <= Z75 <= 100000000.0000000000000000
0.0000000000000000 <= Z76 <= 100000000.0000000000000000
0.0000000000000000 <= Z77 <= 100000000.0000000000000000
0.0000000000000000 <= Z78 <= 100000000.0000000000000000
0.0000000000000000 <= Z79 <= 100000000.0000000000000000
0.0000000000000000 <= Z80 <= 100000000.0000000000000000
0.0000000000000000 <= Z81 <= 100000000.0000000000000000
0.0000000000000000 <= Z82 <= 100000000.0000000000000000
0.0000000000000000 <= Z83 <= 100000000.0000000000000000
0.0000000000000000 <= Z84 <= 100000000.0000000000000000
0.0000000000000000 <= Z85 <= 100000000.0000000000000000
0.0000000000000000 <= Z86 <= 100000000.0000000000000000
0.0000000000000000 <= Z87 <= 100000000.0000000000000000
0.0000000000000000 <= Z88 <= 100000000.0000000000000000
0.0000000000000000 <= Z89 <= 100000000.0000000000000000
0.0000000000000000 <= Z90 <= 100000000.0000000000000000
0.0000000000000000 <= Z91 <= 100000000.0000000000000000
0.0000000000000000 <= Z92 <= 100000000.0000000000000000
0.0000000000000000 <= Z93 <= 100000000.0000000000000000
0.0000000000000000 <= Z94 <= 100000000.0000000000000000
0.0000000000000000 <= Z95 <= 100000000.0000000000000000
0.0000000000000000 <= Z96 <= 100000000.0000000000000000
-100000000.0000000000000000 <= Z97 <= 100000000.0000000000000000
-100000000.0000000000000000 <= Z98 <= 100000000.0000000000000000
0.0000000000000000 <= Z99 <= 500.0000000000000000
0.0000000000000000 <= Z100 <= 100.0000000000000000
0.0000000000000000 <= Z101 <= 100.0000000000000000
0.0000000000000000 <= Z102 <= 100.0000000000000000
0.0000000000000000 <= Z103 <= 100.0000000000000000
0.0000000000000000 <= Z104 <= 100.0000000000000000
0.0000000000000000 <= Z105 <= 500.0000000000000000
0.0000000000000000 <= Z106 <= 500.0000000000000000
0.0000000000000000 <= Z107 <= 500.0000000000000000
0.0000000000000000 <= Z108 <= 500.0000000000000000
0.0000000000000000 <= Z109 <= 500.0000000000000000
0.0000000000000000 <= Z110 <= 500.0000000000000000
0.0000000000000000 <= Z111 <= 100000000.0000000000000000
0.0000000000000000 <= Z112 <= 100000000.0000000000000000
-100000000.0000000000000000 <= Z113 <= 100000000.0000000000000000
0.0000000000000000 <= Z114 <= 100000000.0000000000000000
0.0000000000000000 <= Z115 <= 100000000.0000000000000000
0.0000000000000000 <= Z116 <= 100000000.0000000000000000
0.0000000000000000 <= Z117 <= 100000000.0000000000000000
-100000000.0000000000000000 <= Z118 <= 100000000.0000000000000000
0.0000000000000000 <= Z119 <= 1.0000000000000000
0.0000000000000000 <= Z120 <= 1.0000000000000000
0.0000000000000000 <= Z121 <= 1.0000000000000000
0.0000000000000000 <= Z122 <= 1.0000000000000000
0.0000000000000000 <= Z123 <= 1.0000000000000000
0.0000000000000000 <= Z124 <= 1.0000000000000000
0.0000000000000000 <= Z125 <= 1.0000000000000000
0.0000000000000000 <= Z126 <= 1.0000000000000000
0.0000000000000000 <= Z127 <= 1.0000000000000000
0.0000000000000000 <= Z128 <= 1.0000000000000000
0.0000000000000000 <= Z129 <= 1.0000000000000000
0.0000000000000000 <= Z130 <= 1.0000000000000000
0.0000000000000000 <= Z131 <= 1.0000000000000000
0.0000000000000000 <= Z132 <= 1.0000000000000000
0.0000000000000000 <= Z133 <= 1.0000000000000000
0.0000000000000000 <= Z134 <= 1.0000000000000000
0.0000000000000000 <= Z135 <= 1.0000000000000000
0.0000000000000000 <= Z136 <= 1.0000000000000000
0.0000000000000000 <= Z137 <= 1.0000000000000000
0.0000000000000000 <= Z138 <= 1.0000000000000000
0.0000000000000000 <= Z139 <= 1.0000000000000000
0.0000000000000000 <= Z140 <= 1.0000000000000000
0.0000000000000000 <= Z141 <= 1.0000000000000000
0.0000000000000000 <= Z142 <= 1.0000000000000000
0.0000000000000000 <= Z143 <= 10000000000000000.0000000000000000
0.0000000000000000 <= Z144 <= 10000000000000000.0000000000000000
0.0000000000000000 <= Z145 <= 10000000000000000.0000000000000000
0.0000000000000000 <= Z146 <= 10000000000000000.0000000000000000
0.0000000000000000 <= Z147 <= 10000000000000000.0000000000000000
0.0000000000000000 <= Z148 <= 10000000000000000.0000000000000000
0.0000000000000000 <= Z149 <= 10000000000000000.0000000000000000
0.0000000000000000 <= Z150 <= 10000000000000000.0000000000000000
0.0000000000000000 <= Z151 <= 10000000000000000.0000000000000000
0.0000000000000000 <= Z152 <= 10000000000000000.0000000000000000
0.0000000000000000 <= Z153 <= 10000000000000000.0000000000000000
0.0000000000000000 <= Z154 <= 10000000000000000.0000000000000000
0.0000000000000000 <= Z155 <= 10000000000000000.0000000000000000
0.0000000000000000 <= Z156 <= 10000000000000000.0000000000000000
0.0000000000000000 <= Z157 <= 10000000000000000.0000000000000000
0.0000000000000000 <= Z158 <= 10000000000000000.0000000000000000
0.0000000000000000 <= Z159 <= 10000000000000000.0000000000000000
0.0000000000000000 <= Z160 <= 10000000000000000.0000000000000000
0.0000000000000000 <= Z161 <= 10000000000000000.0000000000000000
0.0000000000000000 <= Z162 <= 10000000000000000.0000000000000000
0.0000000000000000 <= Z163 <= 10000000000000000.0000000000000000
0.0000000000000000 <= Z164 <= 10000000000000000.0000000000000000
0.0000000000000000 <= Z165 <= 10000000000000000.0000000000000000
0.0000000000000000 <= Z166 <= 10000000000000000.0000000000000000
Binaries
Z119 Z120 Z121 Z122 Z123 Z124 Z125 Z126 Z127 Z128 Z129 Z130 Z131 Z132 Z133 Z134 Z135 Z136 Z137 Z138 Z139 Z140 Z141 Z142 
End